c Reduced graph for R50_1gb generated by Cyril Grelier
p edge 44 99
e 1 16
e 1 21
e 1 22
e 1 24
e 1 31
e 2 16
e 2 17
e 2 26
e 2 42
e 3 9
e 3 21
e 3 25
e 3 26
e 4 16
e 4 21
e 4 39
e 4 44
e 5 13
e 5 38
e 6 10
e 6 16
e 6 19
e 6 21
e 6 27
e 7 9
e 7 31
e 7 32
e 7 34
e 7 39
e 8 14
e 8 29
e 8 36
e 8 37
e 9 34
e 9 36
e 9 38
e 10 19
e 10 25
e 10 39
e 11 16
e 11 26
e 11 27
e 11 40
e 12 34
e 12 41
e 13 16
e 13 30
e 13 33
e 13 44
e 14 32
e 14 33
e 14 36
e 14 43
e 15 19
e 15 31
e 15 40
e 16 26
e 16 41
e 17 27
e 17 30
e 17 36
e 17 39
e 17 43
e 18 22
e 18 24
e 18 25
e 18 32
e 18 37
e 19 33
e 19 39
e 20 28
e 20 38
e 20 44
e 22 23
e 22 27
e 22 35
e 22 41
e 22 43
e 23 34
e 23 37
e 24 27
e 25 32
e 25 36
e 26 28
e 26 40
e 26 43
e 27 31
e 28 29
e 28 40
e 29 36
e 30 42
e 31 40
e 32 40
e 33 44
e 35 36
e 35 41
e 37 42
e 38 39
e 39 40
